
(set-logic ALL) 

(declare-datatype MyList ((Nil) (Cons (head Real) (tail MyList)) )) 
(declare-fun l0 () MyList) 
(declare-fun l1 () MyList) 
(declare-fun l2 () MyList) 
(declare-fun l3 () MyList) 
(declare-fun i0 () Real) 
(declare-fun i1 () Real) 
(assert (= l2 Nil) )
(assert (= l3 l2) )
(assert (= l3 Nil) )
(assert (= l2 l2) )
(assert (is-Nil Nil) )
(assert (is-Nil l3) )
(assert (not (= l0 Nil)) )
(assert (and (is-Nil l3) (= l1 Nil) (= l0 Nil)) )
(check-sat)
